(set-logic QF_NRA)
(declare-fun xuscore5dollarsk_1 () Real)
(declare-fun a () Real)
(declare-fun vyuscore5dollarsk_3 () Real)
(declare-fun vxuscore5dollarsk_2 () Real)
(declare-fun buscore2dollarsk_5 () Real)
(declare-fun yuscore5dollarsk_0 () Real)
(declare-fun stateuscore2dollarsk_4 () Real)
(declare-fun vx () Real)
(declare-fun vy () Real)
(declare-fun x () Real)
(declare-fun y () Real)
(declare-fun b () Real)
(declare-fun yuscore2dollarsk_6 () Real)
(declare-fun xuscore2dollarsk_7 () Real)
(assert (= (+ (* 2 a) vyuscore5dollarsk_3 (* (- 1) (* xuscore5dollarsk_1 a))) (- 2)))
(assert (= (+ (* vxuscore5dollarsk_2 vxuscore5dollarsk_2) (* vyuscore5dollarsk_3 vyuscore5dollarsk_3)) 8))
(assert (= (+ (* 2 a) vxuscore5dollarsk_2 (* (- 4) buscore2dollarsk_5) (* a yuscore5dollarsk_0) (* 4 (* a buscore2dollarsk_5))) 2))
(assert (= stateuscore2dollarsk_4 2))
(assert (= vyuscore5dollarsk_3 (- 2)))
(assert (= vxuscore5dollarsk_2 2))
(assert (= (+ (* (- 4) buscore2dollarsk_5) (* xuscore5dollarsk_1 a) (* a yuscore5dollarsk_0) (* 4 (* a buscore2dollarsk_5))) 0))
(assert (= stateuscore2dollarsk_4 1))
(assert (= stateuscore2dollarsk_4 0))
(assert (= vx 2))
(assert (= vy (- 2)))
(assert (= x 0))
(assert (= y 0))
(assert (= b 0))
(assert (not (= (+ (* (- 4) buscore2dollarsk_5) (* 4 (* a buscore2dollarsk_5)) (* a yuscore2dollarsk_6) (* a xuscore2dollarsk_7)) 0)))
(assert (not (= vxuscore5dollarsk_2 (- 2))))
(check-sat)
